7668
1470
7745
9512
3369
9799
9256
6532
8898
1491
1196
8784
7991
5628
2981
4166
1938
2162
5920
6108
4951
7509
4791
488
1226
4653
6769
448
2948
529
1103
1510
5293
4503
4968
1441
7697
7082
3035
7972
7236
7329
5054
5355
1424
4602
3217
6265
6208
682
5786
